(set-info :smt-lib-version 2.7)
(set-logic QF_EIA)
(set-info :source |
Generated by: Florian Frohn
Generator: LoAT
Application: proving unsatisfiability of CHCs
Target solver: SwInE
Time limit: 1.0
Benchmarks generated by the verification tool LoAT to evaluate the SMT solver
SwInE. We extracted all benchmarks with exponentiation that were generated by
LoAT when analyzing the examples from the category LIA-Lin (linear CHCs with
linear integer arithmetic) of the CHC competitions 2022 and 2023, and when
analyzing the examples from the categories "Termination of Integer Transition
Systems" and "Complexity of Integer Transition Systems" of the Termination and
Complexity Competition 2024. From the entire set, we selected those where
* SwInE v0.1.0 or SwInE-Z3 v0.1.2 failed or needed more than 1 second, or
* SwInE-Z3 v0.1.2 failed without phasing, a technique to prevent SwInE from
  computing with huge constants (described here
  https://arxiv.org/abs/2502.04761)
If several selected benchmarks only differed in lines not containing
exponentiation, we kept only one of them. This benchmark is known to be
satisfiable with the slightly different semantics of exponentiation used by the
versions of SwInE mentioned above.
|)
(set-info :license "https://creativecommons.org/licenses/by/4.0/")
(set-info :category "industrial")
(set-info :status unknown)

(declare-fun i1 () Int)
(declare-fun it93 () Int)
(declare-fun it94 () Int)
(declare-fun it15 () Int)
(declare-fun it95 () Int)
(declare-fun it14 () Int)
(declare-fun it13 () Int)
(declare-fun it96 () Int)
(declare-fun bt113 () Bool)
(declare-fun bt114 () Bool)
(declare-fun bt115 () Bool)
(declare-fun bt116 () Bool)
(declare-fun it16 () Int)
(declare-fun it17 () Int)
(declare-fun it18 () Int)
(declare-fun bt25 () Bool)
(declare-fun bt28 () Bool)
(declare-fun bt26 () Bool)
(declare-fun bt27 () Bool)
(declare-fun it100 () Int)
(declare-fun it101 () Int)
(declare-fun it102 () Int)
(declare-fun it103 () Int)
(declare-fun bt117 () Bool)
(declare-fun bt118 () Bool)
(declare-fun bt119 () Bool)
(declare-fun bt120 () Bool)
(declare-fun it155 () Int)
(declare-fun it157 () Int)
(declare-fun it158 () Int)
(declare-fun it159 () Int)
(declare-fun it160 () Int)
(declare-fun bt181 () Bool)
(declare-fun bt182 () Bool)
(declare-fun bt183 () Bool)
(declare-fun bt184 () Bool)
(declare-fun bt123 () Bool)
(declare-fun it104 () Int)
(declare-fun bt122 () Bool)
(declare-fun bt121 () Bool)
(declare-fun it106 () Int)
(declare-fun bt124 () Bool)
(declare-fun it105 () Int)
(declare-fun it163 () Int)
(declare-fun it164 () Int)
(declare-fun it165 () Int)
(declare-fun it166 () Int)
(declare-fun bt185 () Bool)
(declare-fun bt186 () Bool)
(declare-fun bt187 () Bool)
(declare-fun bt188 () Bool)
(declare-fun it167 () Int)
(declare-fun it169 () Int)
(declare-fun bt192 () Bool)
(declare-fun it168 () Int)
(declare-fun bt189 () Bool)
(declare-fun bt190 () Bool)
(declare-fun bt191 () Bool)
(assert (= (+ i1 (- 1)) 0))
(assert (= (+ it93 (- 2)) 0))
(assert (= (+ (* it15 (- 1)) it94) 0))
(assert (= (+ (* it14 (- 1)) it95) 0))
(assert (= (+ it96 (* it13 (- 1))) 0))
(assert (or (not bt113) (and false bt113)))
(assert (or bt114 (and false (not bt114))))
(assert (or (not bt115) (and false bt115)))
(assert (or (not bt116) (and false bt116)))
(assert (and bt27
     (not bt26)
     (not bt28)
     (not bt25)
     (= (+ it18 (- 1)) 0)
     bt114
     (not bt116)
     (not bt115)
     (= (+ (* it17 (- 1)) it95) 0)
     (= (+ it93 (- 2)) 0)
     (= (+ it96 (* it16 (- 1))) 0)
     (not bt113)))
(assert (= (+ it100 (- 2)) 0))
(assert (= (+ (* it18 (- 1)) it101) 0))
(assert (= (+ it102 (* it17 (- 1))) 0))
(assert (= (+ it103 (* it16 (- 1))) 0))
(assert (or (and (not bt27) (not bt117)) (and bt27 bt117)))
(assert (or (and bt28 bt118) (and (not bt28) (not bt118))))
(assert (or (and bt26 bt119) (and (not bt26) (not bt119))))
(assert (or (and bt25 bt120) (and (not bt25) (not bt120))))
(assert (let ((a!1 (+ (* (** 2 (+ it155 (- 1))) (+ 0 it101) (+ 0 (- 1)))
              (+ 0 it103))))
  (and (not bt120)
       (not bt118)
       (>= (+ it100 (- 2)) 0)
       (> it102 0)
       (> (+ it103 (* it101 (- 1))) 0)
       (not bt119)
       bt117
       (>= (+ (* it100 (- 1)) 2) 0)
       (> a!1 (+ 0 0))
       (>= (+ it155 (- 1)) 0))))
(assert (= (+ it157 (* it100 (- 1))) 0))
(assert (= (+ (* (** 2 it155) (+ 0 it101) (+ 0 (- 1))) (+ 0 it158))
   (+ 0 0)))
(assert (= (+ (* it102 (- 1)) it159) 0))
(assert (= (+ it160 (* it103 (- 1))) 0))
(assert (or bt181 (and false (not bt181))))
(assert (or (not bt182) (and false bt182)))
(assert (or (not bt183) (and false bt183)))
(assert (or (not bt184) (and false bt184)))
(assert (and bt181
     (= (+ it157 (- 2)) 0)
     (= (+ (* it105 (- 1)) it159) 0)
     (> it159 0)
     (not bt124)
     (= (+ it160 (* it106 (- 1))) 0)
     (not bt183)
     bt121
     bt122
     (> (+ it160 (* it158 (- 1))) 0)
     (not bt182)
     (= (+ it158 (* it104 (- 1))) 0)
     (not bt184)
     (not bt123)))
(assert (= (+ it163 (- 2)) 0))
(assert (= (+ (* it104 (- 1)) it164) 0))
(assert (= (+ it165 (* it105 (- 1))) 0))
(assert (= (+ (* it106 (- 1)) it166) 0))
(assert (or (and bt122 bt185) (and (not bt185) (not bt122))))
(assert (or (and (not bt186) (not bt121)) (and bt186 bt121)))
(assert (or (and bt187 bt123) (and (not bt187) (not bt123))))
(assert (or (and bt188 bt124) (and (not bt124) (not bt188))))
(assert (let ((a!1 (and (and (and (not bt192) (not bt191)) bt190)
                bt189
                (= (+ it165 (* it168 (- 1))) 0)
                (= (+ (* it169 (- 1)) it166) 0)
                (= (+ it164 (* it167 (- 1))) 0)))
      (a!3 (and (and (not bt192) bt190)
                bt189
                (= (+ (* it164 3) (* it167 (- 1))) 0)
                (= (+ it165 (* it168 (- 1))) 0)
                bt191
                (= (+ (* it169 (- 1)) it166) 0)))
      (a!4 (and (not bt192)
                bt189
                (= (+ it165 (* it168 (- 1))) 0)
                bt191
                (not bt190)
                (= (+ (* it169 (- 1)) it166) 0)
                (= (+ it164 (* it167 (- 1))) 0)))
      (a!5 (and (not bt191)
                bt189
                (= (+ it165 (* it168 (- 1))) 0)
                bt192
                (not bt190)
                (= (+ (* it169 (- 1)) it166) 0)
                (= (+ it164 (* it167 (- 1))) 0)))
      (a!6 (and (and (and (not bt192) (not bt191)) bt190)
                (= (+ it165 (* it168 (- 1))) 0)))
      (a!8 (and (not bt192)
                (= (+ it165 (* it168 (- 1))) 0)
                bt191
                (not bt190)
                (= (+ (* it169 (- 1)) it166) 0)
                (not bt189)
                (= (+ it164 (* it167 (- 1))) 0)))
      (a!9 (and (and (not bt192) bt190)
                (= (+ it165 (* it168 (- 1))) 0)
                bt191
                (= (+ (* it169 (- 1)) it166) 0)
                (not bt189)
                (= (+ it164 (* it167 (- 1))) 0)))
      (a!10 (and (not bt192)
                 (= (+ (* it164 2) (* it167 (- 1))) 0)
                 bt189
                 (= (+ it165 (* it168 (- 1))) 0)
                 bt191
                 (not bt190)
                 (= (+ (* it169 (- 1)) it166) 0)))
      (a!11 (and (not bt191)
                 (= (+ it165 (* it168 (- 1))) 0)
                 bt192
                 (not bt190)
                 (= (+ (* it169 (- 1)) it166) 0)
                 (not bt189)
                 (= (+ it164 (* it167 (- 1))) 0)))
      (a!13 (and (and (not bt191) bt190)
                 (= (+ it165 (* it168 (- 1))) 0)
                 bt192
                 (= (+ (* it169 (- 1)) it166) 0)
                 (not bt189)
                 (= (+ it164 (* it167 (- 1))) 0)))
      (a!14 (and (and (not bt192) (not bt191))
                 (= (+ it165 (* it168 (- 1))) 0)
                 (not bt190)
                 (= (+ (* it169 (- 1)) it166) 0)
                 (not bt189)
                 (= (+ it164 (* it167 (- 1))) 0)))
      (a!15 (and (and (not bt191) bt190)
                 bt189
                 (= (+ it165 (* it168 (- 1))) 0)
                 bt192
                 (= (+ (* it169 (- 1)) it166) 0)
                 (= (+ it164 (* it167 (- 1))) 0))))
(let ((a!2 (or (or (or bt187 bt186) bt188)
               (not bt185)
               (<= (+ it166 (* it164 (- 1))) 0)
               a!1))
      (a!7 (and a!6
                (= (+ (* it169 (- 1)) it166) 0)
                (not bt189)
                (= (+ it164 (* it167 (- 1))) 0)))
      (a!12 (or (> (+ it166 (* it164 (- 1))) 0)
                bt187
                bt186
                bt188
                (not bt185)
                a!11))
      (a!16 (and a!6
                 (= (+ it167 (- 1)) 0)
                 (= (+ (* it169 (- 1)) it166) 0)
                 (not bt189))))
  (and (= (+ it163 (- 2)) 0)
       a!2
       (or bt186 bt188 (not bt187) (not bt185) a!3)
       (or (or bt188 (not bt187)) (not bt185) a!4 (not bt186))
       (or (or bt187 bt186) (<= it164 0) bt185 (not bt188) a!5)
       (or (or bt188 (not bt187)) bt185 (not bt186) a!7)
       (or (or (or bt187 bt188) (not bt185)) a!8 (not bt186) (<= it165 0))
       (or (or (or bt187 bt188) (not bt185)) (not bt186) (> it165 0) a!9)
       (or bt186 a!10 bt188 (not bt187) bt185)
       a!12
       (or bt187 bt185 (not bt186) (not bt188) a!13)
       (or (or bt187 bt186) (not bt185) (not bt188) a!14)
       (or (or (or bt187 bt186) bt188) bt185 a!14)
       (or bt187 (not bt185) (not bt186) (not bt188) a!15)
       (or (or bt187 bt188) a!16 bt185 (not bt186))
       (or bt187 (> it164 0) bt186 bt185 (not bt188) a!15)))))
(check-sat)
(exit)
